DIMACS_lns/graph-1000-959.col
p edge 1000 1831
e 1 874
e 1 108
e 1 605
e 1 206
e 2 972
e 2 346
e 2 757
e 2 156
e 2 280
e 3 187
e 3 550
e 3 70
e 3 741
e 3 11
e 3 5
e 4 963
e 4 532
e 4 642
e 4 801
e 4 45
e 4 428
e 5 367
e 5 792
e 5 753
e 5 482
e 6 215
e 6 947
e 6 57
e 7 447
e 7 808
e 7 620
e 7 838
e 7 824
e 9 448
e 9 859
e 9 580
e 9 744
e 10 447
e 10 138
e 10 835
e 10 892
e 10 596
e 10 661
e 10 391
e 10 803
e 10 671
e 11 175
e 11 191
e 11 77
e 12 580
e 12 897
e 12 742
e 12 960
e 12 612
e 12 512
e 12 739
e 14 19
e 14 566
e 14 875
e 14 360
e 14 916
e 14 588
e 14 232
e 14 726
e 14 648
e 15 455
e 15 451
e 15 695
e 15 223
e 15 874
e 15 114
e 15 936
e 16 415
e 16 592
e 16 510
e 17 55
e 17 906
e 17 415
e 18 543
e 18 817
e 18 809
e 18 963
e 18 769
e 18 815
e 18 416
e 19 653
e 19 773
e 19 493
e 19 485
e 20 644
e 20 354
e 20 96
e 22 729
e 22 899
e 22 389
e 22 208
e 23 785
e 23 640
e 23 612
e 23 344
e 23 168
e 23 940
e 23 512
e 24 641
e 24 626
e 24 238
e 24 599
e 24 678
e 25 305
e 25 260
e 25 34
e 25 818
e 26 200
e 26 549
e 26 432
e 26 890
e 26 833
e 26 726
e 27 191
e 27 93
e 27 52
e 28 670
e 28 726
e 28 58
e 28 249
e 28 390
e 28 991
e 28 550
e 29 210
e 29 915
e 29 416
e 29 513
e 29 316
e 31 926
e 31 985
e 31 708
e 31 165
e 31 674
e 32 235
e 32 312
e 32 550
e 33 656
e 33 225
e 33 399
e 33 369
e 34 881
e 34 432
e 34 792
e 35 575
e 35 938
e 35 405
e 35 830
e 35 352
e 35 134
e 36 786
e 36 511
e 36 478
e 37 578
e 37 119
e 37 873
e 37 550
e 38 945
e 38 754
e 38 690
e 38 71
e 38 648
e 38 700
e 39 77
e 39 200
e 39 620
e 40 832
e 40 681
e 40 639
e 40 813
e 40 94
e 40 517
e 40 511
e 40 610
e 41 566
e 41 770
e 41 567
e 41 165
e 44 885
e 44 220
e 44 172
e 44 616
e 45 869
e 45 192
e 45 254
e 46 791
e 46 730
e 46 130
e 47 363
e 47 195
e 47 507
e 47 994
e 47 638
e 48 503
e 48 552
e 48 893
e 49 547
e 49 954
e 49 626
e 49 857
e 50 360
e 50 739
e 50 337
e 51 935
e 51 771
e 51 464
e 52 393
e 52 401
e 52 68
e 52 904
e 52 115
e 53 529
e 53 461
e 53 206
e 53 423
e 53 150
e 54 818
e 54 559
e 54 775
e 55 928
e 55 157
e 55 144
e 55 857
e 55 286
e 56 922
e 56 925
e 56 330
e 57 658
e 57 829
e 57 727
e 58 705
e 58 858
e 58 251
e 60 215
e 60 803
e 60 378
e 60 727
e 62 552
e 62 722
e 62 868
e 62 818
e 62 543
e 62 731
e 62 374
e 62 403
e 63 842
e 63 266
e 63 141
e 63 337
e 63 126
e 63 202
e 65 258
e 65 719
e 65 924
e 65 617
e 66 456
e 66 666
e 66 488
e 67 941
e 67 754
e 67 94
e 67 434
e 67 323
e 68 290
e 68 140
e 68 996
e 68 142
e 68 596
e 69 801
e 69 105
e 69 616
e 69 958
e 69 379
e 70 473
e 70 759
e 71 228
e 71 78
e 71 674
e 71 168
e 72 575
e 72 340
e 72 511
e 72 731
e 72 987
e 72 677
e 72 863
e 73 290
e 73 265
e 73 825
e 73 170
e 73 633
e 74 416
e 74 631
e 74 873
e 74 598
e 75 233
e 75 206
e 75 890
e 75 363
e 77 971
e 77 443
e 77 648
e 78 125
e 78 190
e 78 181
e 78 836
e 79 313
e 79 477
e 79 91
e 80 898
e 80 793
e 80 846
e 80 310
e 80 770
e 81 174
e 81 84
e 81 152
e 83 317
e 83 696
e 83 592
e 83 910
e 83 775
e 83 148
e 83 960
e 83 615
e 84 95
e 84 390
e 84 729
e 84 899
e 84 94
e 84 714
e 84 888
e 84 475
e 87 965
e 87 823
e 87 859
e 87 346
e 87 476
e 87 145
e 91 94
e 91 556
e 91 903
e 91 601
e 91 577
e 93 802
e 93 541
e 93 513
e 93 485
e 93 360
e 93 681
e 93 212
e 94 538
e 94 918
e 94 618
e 94 338
e 95 674
e 95 258
e 95 476
e 95 488
e 96 943
e 96 787
e 96 372
e 96 471
e 98 911
e 98 390
e 98 598
e 98 909
e 98 455
e 99 309
e 99 418
e 99 786
e 100 528
e 100 179
e 100 221
e 100 865
e 101 690
e 101 405
e 101 671
e 101 238
e 101 970
e 101 772
e 101 314
e 101 428
e 101 217
e 102 704
e 102 859
e 102 440
e 103 953
e 103 812
e 103 296
e 103 421
e 105 123
e 105 585
e 105 858
e 105 969
e 105 899
e 107 954
e 107 684
e 107 672
e 107 989
e 108 173
e 108 580
e 109 931
e 109 154
e 109 897
e 109 675
e 110 309
e 110 656
e 110 389
e 110 356
e 110 260
e 110 342
e 111 167
e 111 766
e 111 852
e 111 850
e 111 150
e 111 965
e 112 160
e 112 720
e 112 394
e 114 711
e 114 771
e 114 326
e 114 770
e 114 920
e 114 989
e 115 441
e 115 338
e 115 695
e 115 699
e 116 938
e 116 578
e 116 474
e 116 244
e 118 600
e 118 642
e 118 200
e 119 739
e 119 981
e 120 917
e 120 914
e 120 152
e 121 354
e 121 785
e 121 313
e 121 915
e 122 787
e 122 570
e 122 376
e 122 666
e 122 731
e 123 827
e 123 398
e 123 739
e 125 583
e 125 367
e 125 385
e 125 999
e 125 164
e 125 855
e 125 175
e 125 172
e 126 283
e 126 162
e 126 524
e 126 671
e 126 492
e 129 832
e 129 959
e 129 981
e 129 815
e 129 398
e 130 671
e 130 228
e 130 690
e 130 344
e 133 425
e 133 193
e 133 725
e 133 634
e 133 921
e 134 892
e 134 557
e 134 169
e 134 281
e 135 201
e 135 543
e 135 367
e 136 578
e 136 958
e 136 483
e 138 384
e 138 149
e 138 190
e 138 586
e 139 527
e 139 288
e 139 478
e 139 790
e 139 876
e 140 253
e 140 520
e 140 223
e 140 729
e 140 394
e 141 900
e 141 567
e 141 731
e 141 174
e 142 973
e 142 608
e 142 516
e 144 428
e 144 771
e 145 420
e 145 419
e 145 200
e 146 418
e 146 823
e 146 969
e 146 905
e 146 855
e 147 392
e 147 985
e 147 446
e 147 155
e 148 282
e 148 695
e 148 926
e 148 326
e 149 263
e 149 221
e 149 838
e 149 908
e 150 939
e 150 992
e 150 296
e 150 696
e 152 274
e 152 915
e 152 554
e 152 269
e 152 237
e 153 601
e 153 933
e 153 519
e 153 657
e 154 536
e 154 485
e 154 433
e 155 764
e 155 647
e 155 790
e 156 907
e 156 886
e 156 800
e 156 819
e 157 880
e 157 360
e 157 876
e 157 655
e 157 337
e 160 542
e 160 889
e 160 839
e 160 781
e 161 740
e 161 639
e 161 326
e 162 921
e 162 295
e 162 960
e 162 926
e 162 447
e 162 943
e 162 398
e 164 898
e 164 367
e 164 621
e 164 780
e 164 744
e 165 570
e 165 351
e 166 565
e 166 189
e 166 630
e 167 442
e 167 450
e 167 749
e 168 772
e 168 470
e 168 663
e 168 649
e 169 384
e 169 383
e 169 232
e 170 279
e 170 880
e 170 660
e 171 292
e 171 509
e 171 231
e 171 703
e 171 482
e 171 404
e 172 187
e 172 323
e 172 577
e 173 726
e 173 468
e 174 477
e 174 184
e 174 501
e 174 292
e 174 189
e 174 185
e 175 528
e 176 394
e 176 253
e 176 556
e 176 371
e 176 280
e 176 924
e 179 381
e 179 334
e 179 717
e 179 485
e 180 937
e 180 505
e 180 468
e 180 326
e 181 510
e 181 529
e 181 739
e 181 672
e 181 793
e 183 532
e 183 298
e 183 464
e 184 727
e 184 824
e 184 742
e 185 452
e 185 458
e 185 396
e 185 214
e 185 831
e 186 533
e 186 937
e 186 817
e 187 567
e 187 551
e 188 753
e 188 537
e 188 806
e 188 960
e 188 741
e 188 496
e 188 238
e 188 983
e 189 390
e 189 944
e 190 276
e 190 329
e 190 790
e 191 443
e 191 705
e 191 761
e 192 308
e 192 799
e 192 602
e 193 833
e 193 323
e 193 502
e 195 276
e 195 363
e 195 772
e 195 723
e 195 636
e 196 311
e 196 322
e 196 443
e 197 704
e 197 544
e 197 475
e 197 415
e 199 690
e 199 877
e 199 795
e 199 334
e 200 809
e 200 288
e 200 533
e 200 502
e 200 834
e 200 470
e 200 526
e 200 314
e 201 471
e 201 413
e 201 863
e 201 496
e 202 451
e 202 316
e 202 464
e 202 476
e 202 471
e 202 869
e 204 302
e 204 954
e 204 225
e 204 294
e 204 509
e 204 870
e 205 773
e 205 415
e 205 777
e 206 303
e 206 859
e 206 981
e 206 936
e 206 734
e 208 885
e 208 937
e 210 322
e 210 682
e 211 454
e 211 947
e 211 474
e 212 256
e 212 603
e 212 443
e 212 464
e 213 797
e 213 427
e 213 803
e 214 234
e 214 431
e 214 607
e 215 982
e 215 401
e 215 995
e 215 532
e 215 541
e 217 393
e 217 250
e 217 710
e 217 610
e 217 659
e 219 643
e 219 501
e 219 220
e 220 839
e 220 479
e 220 828
e 220 592
e 220 370
e 220 770
e 220 922
e 220 278
e 221 830
e 221 226
e 221 838
e 221 335
e 222 506
e 222 875
e 222 649
e 223 992
e 223 978
e 223 680
e 223 270
e 225 682
e 225 777
e 225 825
e 225 708
e 226 941
e 226 482
e 226 824
e 226 949
e 226 310
e 227 428
e 227 598
e 227 911
e 227 610
e 228 249
e 228 490
e 231 978
e 231 561
e 231 245
e 231 663
e 231 322
e 231 298
e 232 266
e 232 742
e 232 966
e 233 334
e 233 977
e 234 900
e 234 847
e 234 794
e 235 323
e 235 525
e 235 713
e 237 506
e 237 590
e 238 547
e 238 773
e 238 724
e 239 403
e 239 602
e 239 631
e 243 766
e 243 520
e 243 740
e 243 369
e 244 911
e 244 858
e 245 476
e 245 695
e 245 555
e 247 511
e 247 999
e 247 966
e 249 907
e 249 402
e 250 262
e 250 865
e 250 797
e 250 599
e 250 898
e 250 557
e 250 851
e 250 787
e 251 289
e 251 395
e 253 726
e 253 626
e 253 280
e 254 404
e 254 357
e 254 907
e 254 269
e 254 702
e 254 553
e 255 857
e 255 947
e 255 287
e 255 924
e 256 908
e 256 865
e 258 933
e 258 881
e 258 555
e 260 298
e 262 340
e 262 770
e 262 951
e 263 934
e 263 627
e 263 463
e 263 308
e 263 383
e 263 657
e 265 533
e 265 500
e 265 266
e 265 975
e 265 427
e 265 446
e 265 361
e 266 474
e 266 918
e 266 832
e 266 553
e 266 351
e 266 541
e 268 466
e 268 289
e 268 609
e 268 806
e 269 527
e 269 707
e 269 537
e 270 972
e 270 501
e 270 287
e 272 690
e 272 420
e 272 322
e 273 285
e 273 896
e 273 312
e 274 636
e 274 887
e 274 447
e 276 940
e 276 538
e 276 843
e 277 960
e 277 932
e 277 345
e 277 950
e 278 740
e 278 335
e 278 995
e 278 506
e 279 603
e 279 459
e 280 551
e 280 720
e 280 554
e 280 329
e 281 747
e 281 940
e 281 707
e 281 771
e 281 553
e 282 617
e 282 516
e 283 402
e 283 840
e 283 661
e 283 482
e 283 343
e 285 537
e 285 647
e 285 418
e 285 996
e 285 428
e 285 709
e 286 831
e 286 325
e 287 990
e 287 305
e 287 758
e 287 493
e 287 418
e 287 312
e 287 875
e 288 310
e 288 482
e 288 545
e 289 646
e 289 832
e 290 561
e 290 823
e 290 552
e 292 597
e 292 534
e 292 993
e 292 940
e 294 301
e 294 313
e 294 563
e 295 407
e 295 884
e 295 633
e 295 950
e 296 891
e 296 728
e 296 724
e 296 938
e 296 646
e 296 439
e 296 492
e 298 377
e 298 749
e 298 871
e 298 870
e 301 731
e 301 405
e 301 928
e 301 330
e 301 994
e 302 859
e 302 671
e 302 739
e 302 463
e 302 378
e 303 789
e 303 953
e 303 972
e 305 371
e 308 710
e 308 707
e 308 955
e 308 388
e 308 835
e 309 316
e 309 610
e 309 671
e 309 440
e 309 477
e 310 909
e 310 835
e 310 381
e 310 583
e 311 395
e 311 769
e 311 359
e 311 631
e 312 922
e 312 908
e 312 384
e 313 647
e 313 670
e 313 578
e 314 344
e 316 804
e 316 655
e 316 459
e 316 644
e 316 990
e 317 555
e 317 924
e 317 888
e 320 686
e 320 465
e 320 710
e 321 842
e 321 493
e 321 972
e 321 708
e 322 917
e 322 759
e 323 830
e 323 447
e 324 983
e 324 728
e 324 461
e 324 439
e 324 702
e 325 526
e 325 580
e 325 890
e 325 687
e 325 608
e 325 479
e 326 895
e 326 568
e 328 850
e 328 985
e 328 928
e 329 779
e 329 841
e 329 504
e 329 596
e 330 791
e 330 941
e 331 595
e 331 869
e 331 839
e 331 984
e 334 392
e 335 863
e 335 895
e 335 449
e 337 484
e 337 812
e 338 898
e 338 917
e 338 806
e 338 678
e 340 944
e 340 745
e 340 342
e 340 899
e 340 761
e 342 405
e 342 381
e 343 361
e 343 731
e 344 351
e 345 449
e 345 815
e 345 414
e 345 401
e 345 922
e 346 503
e 346 727
e 346 639
e 351 432
e 351 786
e 351 480
e 351 742
e 351 370
e 352 773
e 352 798
e 352 505
e 352 709
e 353 907
e 353 678
e 353 524
e 354 981
e 354 898
e 354 855
e 355 878
e 355 537
e 355 626
e 355 747
e 355 887
e 356 670
e 356 681
e 357 938
e 357 574
e 357 477
e 357 372
e 357 490
e 359 614
e 359 372
e 360 802
e 361 803
e 361 396
e 361 592
e 362 594
e 362 595
e 362 579
e 362 483
e 363 451
e 363 924
e 363 920
e 363 824
e 363 396
e 363 388
e 367 421
e 367 695
e 367 527
e 367 427
e 367 616
e 369 812
e 369 889
e 370 640
e 370 899
e 370 507
e 370 761
e 370 843
e 371 502
e 371 969
e 371 572
e 371 953
e 372 724
e 372 501
e 373 592
e 373 839
e 373 563
e 374 700
e 374 903
e 376 935
e 376 852
e 377 626
e 377 827
e 377 873
e 378 567
e 378 935
e 378 943
e 378 667
e 379 949
e 379 926
e 379 769
e 380 588
e 380 517
e 380 551
e 381 754
e 381 779
e 381 971
e 383 825
e 383 891
e 384 575
e 384 987
e 384 644
e 385 536
e 385 714
e 385 524
e 386 785
e 386 630
e 386 461
e 388 493
e 389 563
e 389 675
e 390 739
e 390 407
e 390 903
e 391 832
e 391 674
e 391 797
e 391 675
e 392 621
e 392 638
e 392 949
e 392 902
e 393 751
e 393 841
e 394 910
e 395 405
e 395 429
e 395 496
e 396 544
e 396 897
e 396 587
e 398 421
e 398 485
e 398 928
e 399 955
e 399 536
e 399 597
e 399 550
e 401 406
e 401 777
e 402 937
e 403 576
e 403 815
e 403 914
e 403 981
e 404 567
e 404 846
e 404 407
e 405 463
e 405 576
e 405 734
e 405 940
e 406 836
e 406 493
e 406 677
e 413 820
e 413 888
e 413 586
e 413 960
e 413 476
e 414 789
e 414 903
e 414 989
e 414 780
e 414 493
e 414 576
e 415 886
e 416 566
e 416 921
e 416 926
e 417 831
e 417 896
e 417 422
e 417 439
e 418 424
e 418 852
e 419 452
e 419 916
e 420 993
e 420 813
e 420 636
e 421 627
e 421 739
e 421 993
e 422 435
e 422 461
e 423 431
e 423 846
e 424 989
e 424 452
e 425 508
e 425 538
e 426 674
e 426 787
e 426 983
e 427 482
e 427 887
e 428 579
e 429 952
e 429 595
e 431 891
e 431 731
e 431 434
e 431 908
e 431 847
e 432 901
e 432 851
e 432 918
e 433 740
e 433 870
e 434 800
e 434 782
e 435 585
e 435 868
e 435 545
e 439 966
e 439 649
e 440 922
e 440 539
e 441 543
e 441 741
e 441 760
e 441 568
e 441 959
e 442 971
e 442 505
e 442 719
e 443 638
e 443 819
e 443 722
e 443 934
e 446 565
e 446 524
e 447 533
e 447 646
e 447 450
e 447 772
e 447 597
e 448 855
e 448 821
e 448 901
e 449 481
e 449 498
e 450 728
e 450 982
e 450 667
e 451 785
e 453 561
e 453 753
e 453 568
e 454 751
e 454 873
e 454 572
e 454 710
e 454 806
e 454 800
e 454 682
e 455 470
e 455 642
e 456 666
e 456 792
e 458 916
e 458 886
e 459 547
e 459 567
e 461 621
e 463 749
e 463 829
e 464 722
e 464 675
e 464 868
e 464 621
e 464 711
e 465 773
e 465 572
e 465 995
e 465 595
e 466 973
e 466 644
e 466 618
e 466 600
e 468 633
e 468 658
e 468 960
e 471 529
e 471 812
e 471 696
e 471 556
e 473 764
e 473 577
e 474 809
e 474 949
e 475 806
e 475 995
e 475 917
e 476 832
e 476 533
e 477 574
e 477 690
e 477 484
e 477 785
e 478 808
e 478 693
e 479 527
e 479 793
e 479 513
e 479 758
e 480 975
e 480 800
e 481 613
e 481 693
e 481 773
e 482 834
e 482 603
e 483 842
e 483 825
e 483 829
e 484 885
e 484 881
e 485 799
e 485 924
e 488 978
e 488 678
e 490 621
e 492 993
e 492 615
e 493 684
e 493 881
e 496 563
e 498 607
e 498 564
e 498 529
e 500 880
e 500 878
e 500 575
e 501 800
e 501 686
e 503 727
e 503 830
e 503 627
e 504 585
e 504 537
e 505 769
e 507 857
e 507 958
e 508 753
e 508 829
e 508 659
e 508 727
e 509 744
e 510 572
e 511 888
e 512 843
e 516 885
e 516 734
e 516 570
e 517 922
e 517 646
e 519 649
e 519 832
e 519 802
e 519 653
e 519 904
e 520 709
e 520 902
e 524 999
e 524 935
e 525 966
e 525 805
e 525 902
e 526 951
e 526 795
e 528 912
e 528 550
e 528 542
e 529 803
e 529 921
e 530 600
e 530 821
e 530 696
e 532 764
e 533 585
e 534 725
e 534 978
e 534 909
e 535 730
e 535 682
e 535 889
e 535 641
e 536 832
e 536 877
e 537 898
e 537 716
e 538 620
e 539 769
e 539 780
e 539 557
e 541 982
e 541 878
e 542 972
e 542 673
e 544 835
e 545 567
e 545 781
e 547 954
e 547 580
e 549 789
e 549 995
e 549 980
e 550 605
e 551 666
e 551 781
e 551 634
e 551 991
e 551 693
e 552 719
e 553 639
e 554 991
e 554 782
e 555 730
e 555 587
e 555 980
e 556 699
e 556 977
e 557 925
e 559 583
e 559 980
e 559 890
e 559 648
e 559 987
e 559 916
e 560 924
e 560 751
e 560 772
e 561 587
e 561 931
e 561 772
e 563 849
e 563 745
e 563 850
e 564 937
e 564 959
e 564 955
e 564 912
e 565 680
e 566 667
e 566 874
e 567 992
e 567 754
e 568 812
e 568 624
e 572 900
e 572 626
e 574 716
e 574 924
e 575 993
e 575 761
e 575 758
e 576 828
e 576 779
e 578 642
e 579 895
e 580 955
e 580 984
e 583 793
e 586 690
e 586 671
e 587 792
e 588 633
e 590 673
e 590 916
e 590 729
e 592 634
e 594 885
e 594 923
e 595 972
e 595 671
e 595 937
e 596 892
e 597 905
e 597 713
e 597 660
e 597 932
e 598 801
e 598 641
e 598 638
e 598 610
e 598 615
e 599 889
e 600 717
e 601 972
e 601 819
e 601 890
e 602 603
e 602 633
e 605 720
e 607 996
e 608 728
e 608 634
e 609 634
e 609 802
e 610 900
e 610 612
e 610 789
e 613 620
e 613 905
e 613 760
e 613 660
e 614 640
e 614 865
e 614 828
e 614 929
e 616 786
e 617 660
e 617 769
e 617 987
e 618 659
e 620 824
e 621 970
e 621 697
e 624 660
e 624 908
e 624 658
e 626 922
e 627 838
e 627 938
e 627 737
e 627 840
e 627 799
e 630 884
e 631 887
e 631 700
e 633 858
e 634 878
e 636 744
e 636 714
e 636 737
e 636 985
e 638 825
e 638 720
e 639 893
e 639 967
e 640 833
e 640 787
e 640 980
e 640 971
e 641 939
e 641 712
e 641 997
e 642 838
e 643 905
e 643 873
e 643 870
e 643 775
e 647 908
e 648 836
e 649 726
e 653 928
e 655 717
e 656 931
e 657 668
e 657 951
e 657 804
e 658 952
e 659 667
e 659 978
e 661 739
e 662 966
e 662 904
e 662 987
e 662 933
e 663 966
e 668 940
e 668 805
e 670 710
e 672 910
e 672 916
e 672 791
e 673 997
e 675 838
e 675 937
e 677 737
e 677 744
e 678 793
e 678 953
e 680 809
e 682 711
e 684 794
e 686 894
e 686 775
e 686 760
e 687 836
e 687 896
e 690 851
e 690 697
e 692 965
e 692 707
e 692 847
e 693 885
e 695 945
e 695 975
e 697 720
e 697 831
e 697 815
e 699 857
e 699 847
e 700 915
e 700 818
e 702 812
e 702 923
e 702 757
e 703 891
e 703 729
e 704 875
e 705 871
e 707 835
e 707 802
e 708 851
e 709 824
e 709 887
e 710 817
e 711 786
e 712 933
e 712 886
e 712 989
e 713 731
e 713 898
e 716 742
e 716 839
e 716 786
e 717 914
e 720 751
e 720 908
e 720 895
e 722 798
e 722 815
e 723 892
e 723 983
e 725 905
e 726 773
e 728 901
e 729 833
e 730 926
e 731 841
e 734 977
e 737 847
e 739 902
e 741 890
e 742 997
e 744 967
e 744 990
e 745 935
e 745 874
e 745 843
e 745 999
e 745 926
e 747 929
e 751 865
e 753 824
e 757 777
e 758 903
e 759 823
e 764 936
e 766 781
e 773 963
e 773 906
e 777 921
e 777 793
e 777 801
e 777 849
e 779 886
e 782 801
e 782 797
e 782 951
e 785 793
e 786 843
e 786 920
e 789 891
e 790 907
e 791 878
e 791 893
e 791 805
e 793 841
e 794 871
e 795 891
e 797 803
e 798 804
e 800 833
e 802 820
e 802 813
e 804 952
e 805 831
e 806 819
e 808 906
e 817 949
e 818 983
e 818 874
e 820 949
e 820 936
e 821 893
e 823 950
e 824 877
e 827 912
e 833 984
e 833 939
e 833 926
e 833 991
e 834 938
e 834 950
e 834 965
e 834 840
e 842 918
e 846 932
e 846 953
e 847 869
e 849 910
e 852 994
e 855 911
e 855 959
e 858 971
e 863 881
e 868 994
e 869 934
e 869 975
e 870 995
e 873 992
e 873 965
e 873 967
e 876 997
e 877 973
e 877 950
e 878 940
e 880 950
e 884 894
e 885 944
e 886 916
e 887 889
e 888 924
e 889 925
e 891 999
e 892 936
e 894 924
e 896 923
e 897 992
e 899 935
e 899 973
e 900 945
e 902 972
e 905 996
e 906 954
e 911 940
e 922 929
e 923 970
e 933 939
e 937 969
e 959 973
e 965 975
e 965 972
